2 15
421 393 
0 63 64 74 82 22 10 1
1 84 92 23 27 95 88 2
2 8 6 85 77 17 60 1
3 82 91 41 38 26 6 1
4 72 72 18 23 69 19 1
5 23 22 70 68 40 72 1
6 3 5 24 32 22 92 2
7 102 100 32 38 19 78 2
8 46 37 2 4 76 28 2
9 89 90 53 45 86 80 1
10 23 28 72 74 72 14 2
11 42 51 56 62 75 60 1
12 34 40 91 91 88 11 2
13 91 88 41 35 90 57 1
14 55 57 85 91 35 8 2
